 $BASIS GBASIS=N31 NGAUSS=6 $END
 $DATA
 Should be setted!
 C1
 C     6.00     0.014223     0.543850     0.000000
 C     6.00     0.014223    -0.199742     1.291572
 C     6.00     0.014223    -0.199742    -1.291572
 H     1.00    -0.322890     1.575329     0.000000
 H     1.00     0.221417     0.459174     2.138477
 H     1.00     0.221417     0.459174    -2.138477
 H     1.00    -0.955157    -0.684629     1.484633
 H     1.00     0.767181    -0.995308     1.286239
 H     1.00     0.767181    -0.995308    -1.286239
 H     1.00    -0.955157    -0.684629    -1.484633
 $END
 $DFT NLEB=110 DDSC=.t. NRAD=24 $END
 $SYSTEM MWORDS=8 $END
 $SCF DIRSCF=.t. $END
 $CONTRL RUNTYP=ENERGY MAXIT=200 DFTTYP=wB97X ICHARG=0 MULT=2 
EXETYP=RUN SCFTYP=ROHF $END