 $BASIS GBASIS=N31 NGAUSS=6 $END
 $DATA
 Should be setted!
 C1
 C     6.00     0.000000     0.000000     0.000000
 $END
 $DFT NLEB=110 DDSC=.t. NRAD=24 $END
 $SYSTEM MWORDS=8 $END
 $SCF DIRSCF=.t. $END
 $CONTRL RUNTYP=ENERGY MAXIT=200 DFTTYP=wB97X ICHARG=0 MULT=3 
EXETYP=RUN SCFTYP=UHF $END