 $BASIS NGAUSS=6 GBASIS=N31 $END
 $DATA
 Should be setted!
 C1
 O     8.00     0.000000     0.000000     0.000000
 $END
 $SYSTEM MWORDS=8 $END
 $CONTRL DFTTYP=wB97X ICHARG=0 SCFTYP=UHF EXETYP=RUN MULT=3 RUNTYP=ENERGY 
MAXIT=200 $END
 $SCF DIRSCF=.t. $END
 $DFT NRAD=24 NLEB=110 DDSC=.t. $END