 $CONTRL ICHARG=0 EXETYP=RUN MULT=2 MAXIT=200 RUNTYP=ENERGY DFTTYP=B97 
SCFTYP=UHF $END
 $DATA
 Should be setted!
 C1
 H     1.00     0.000000     0.000000     0.000000
 $END
 $BASIS NGAUSS=6 GBASIS=N31 $END
 $SYSTEM MWORDS=8 $END
 $SCF DIRSCF=.t. $END
 $DFT DDSC=.t. NRAD=24 NLEB=110 $END