 $DATA
 Should be setted!
 C1
 H     1.00     0.000000     0.000000     0.000000
 $END
 $DFT NRAD=24 NLEB=110 DDSC=.t. $END
 $SCF DIRSCF=.t. $END
 $BASIS NGAUSS=6 GBASIS=N31 $END
 $CONTRL DFTTYP=B97 ICHARG=0 EXETYP=RUN MULT=2 MAXIT=200 SCFTYP=UHF 
RUNTYP=ENERGY $END
 $SYSTEM MWORDS=8 $END