 $DATA
 Should be setted!
 C1
 O     8.00     0.027191     1.363691    -0.167516
 C     6.00    -0.000926     0.036459     0.370128
 H     1.00     0.859465     1.775647     0.121307
 H     1.00     0.007371     0.082145     1.470506
 C     6.00    -1.313275    -0.563514    -0.088979
 C     6.00     1.200721    -0.764480    -0.104920
 H     1.00    -1.334005    -0.607253    -1.181009
 H     1.00     1.202843    -0.807817    -1.197189
 H     1.00    -2.147812     0.054993     0.247676
 H     1.00     2.136462    -0.299324     0.223164
 H     1.00    -1.438709    -1.574275     0.308340
 H     1.00     1.177736    -1.784436     0.289967
 $END
 $DFT NRAD=24 NLEB=110 DDSC=.t. $END
 $SCF DIRSCF=.t. $END
 $BASIS NGAUSS=6 GBASIS=N31 $END
 $CONTRL DFTTYP=wB97X ICHARG=0 EXETYP=RUN MULT=1 MAXIT=200 SCFTYP=ROHF 
RUNTYP=ENERGY $END
 $SYSTEM MWORDS=8 $END