 $DFT NLEB=110 NRAD=24 DDSC=.t. $END
 $CONTRL RUNTYP=ENERGY MULT=3 SCFTYP=UHF MAXIT=200 DFTTYP=wB97X 
ICHARG=0 EXETYP=RUN $END
 $SYSTEM MWORDS=8 $END
 $SCF DIRSCF=.t. $END
 $DATA
 Should be setted!
 C1
 O     8.00     0.000000     0.000000     0.000000
 $END
 $BASIS GBASIS=N31 NGAUSS=6 $END