 $BASIS NGAUSS=6 GBASIS=N31 $END
 $DATA
 Should be setted!
 C1
 C     6.00     0.014223     0.543850     0.000000
 C     6.00     0.014223    -0.199742     1.291572
 C     6.00     0.014223    -0.199742    -1.291572
 H     1.00    -0.322890     1.575329     0.000000
 H     1.00     0.221417     0.459174     2.138477
 H     1.00     0.221417     0.459174    -2.138477
 H     1.00    -0.955157    -0.684629     1.484633
 H     1.00     0.767181    -0.995308     1.286239
 H     1.00     0.767181    -0.995308    -1.286239
 H     1.00    -0.955157    -0.684629    -1.484633
 $END
 $SYSTEM MWORDS=8 $END
 $CONTRL DFTTYP=wB97X ICHARG=0 SCFTYP=ROHF EXETYP=RUN MULT=2 
RUNTYP=ENERGY MAXIT=200 $END
 $SCF DIRSCF=.t. $END
 $DFT NRAD=24 NLEB=110 DDSC=.t. $END