 $SYSTEM MWORDS=8 $END
 $DFT DDSC=.t. NLEB=110 NRAD=24 $END
 $BASIS NGAUSS=6 GBASIS=N31 $END
 $SCF DIRSCF=.t. $END
 $CONTRL MAXIT=200 ICHARG=0 RUNTYP=ENERGY EXETYP=RUN MULT=2 DFTTYP=B97 
SCFTYP=UHF $END
 $DATA
 Should be setted!
 C1
 H     1.00     0.000000     0.000000     0.000000
 $END