 $BASIS NGAUSS=6 GBASIS=N31 $END
 $SYSTEM MWORDS=8 $END
 $SCF DIRSCF=.t. $END
 $CONTRL SCFTYP=UHF RUNTYP=ENERGY DFTTYP=B97 EXETYP=RUN MAXIT=200 
ICHARG=0 MULT=2 $END
 $DATA
 Should be setted!
 C1
 H     1.00     0.000000     0.000000     0.000000
 $END
 $DFT NRAD=24 DDSC=.t. NLEB=110 $END