 $CONTRL MULT=1 DFTTYP=wB97X ICHARG=0 RUNTYP=ENERGY MAXIT=200 
EXETYP=RUN SCFTYP=ROHF $END
 $SYSTEM MWORDS=8 $END
 $DFT NRAD=24 NLEB=110 DDSC=.t. $END
 $SCF DIRSCF=.t. $END
 $DATA
 Should be setted!
 C1
 N     7.00    -1.578718    -0.046611     0.000000
 H     1.00    -2.158621     0.136396    -0.809565
 H     1.00    -2.158621     0.136396     0.809565
 H     1.00    -0.849471     0.658193     0.000000
 N     7.00     1.578718     0.046611     0.000000
 H     1.00     2.158621    -0.136396    -0.809565
 H     1.00     0.849471    -0.658193     0.000000
 H     1.00     2.158621    -0.136396     0.809565
 $END
 $BASIS NGAUSS=6 GBASIS=N31 $END