 $CONTRL MULT=1 DFTTYP=wB97X ICHARG=0 RUNTYP=ENERGY MAXIT=200 
EXETYP=RUN SCFTYP=ROHF $END
 $SYSTEM MWORDS=8 $END
 $DFT NRAD=24 NLEB=110 DDSC=.t. $END
 $SCF DIRSCF=.t. $END
 $DATA
 Should be setted!
 C1
 O     8.00    -1.551007    -0.114520     0.000000
 H     1.00    -1.934259     0.762503     0.000000
 H     1.00    -0.599677     0.040712     0.000000
 O     8.00     1.350625     0.111469     0.000000
 H     1.00     1.680398    -0.373741    -0.758561
 H     1.00     1.680398    -0.373741     0.758561
 $END
 $BASIS NGAUSS=6 GBASIS=N31 $END