 $CONTRL MULT=1 DFTTYP=wB97X ICHARG=0 RUNTYP=ENERGY MAXIT=200 
EXETYP=RUN SCFTYP=ROHF $END
 $SYSTEM MWORDS=8 $END
 $DFT NRAD=24 NLEB=110 DDSC=.t. $END
 $SCF DIRSCF=.t. $END
 $DATA
 Should be setted!
 C1
 C     6.00    -1.888896    -0.179692     0.000000
 O     8.00    -1.493280     1.073689     0.000000
 O     8.00    -1.170435    -1.166590     0.000000
 H     1.00    -2.979488    -0.258829     0.000000
 H     1.00    -0.498833     1.107195     0.000000
 C     6.00     1.888896     0.179692     0.000000
 O     8.00     1.493280    -1.073689     0.000000
 O     8.00     1.170435     1.166590     0.000000
 H     1.00     2.979488     0.258829     0.000000
 H     1.00     0.498833    -1.107195     0.000000
 $END
 $BASIS NGAUSS=6 GBASIS=N31 $END