 $DATA
 Should be setted!
 C1
 O     8.00    -1.551007    -0.114520     0.000000
 H     1.00    -1.934259     0.762503     0.000000
 H     1.00    -0.599677     0.040712     0.000000
 O     8.00     1.350625     0.111469     0.000000
 H     1.00     1.680398    -0.373741    -0.758561
 H     1.00     1.680398    -0.373741     0.758561
 $END
 $SYSTEM MWORDS=8 $END
 $DFT NLEB=110 NRAD=24 DDSC=.t. $END
 $BASIS NGAUSS=6 GBASIS=N31 $END
 $SCF DIRSCF=.t. $END
 $CONTRL MULT=1 DFTTYP=wB97X EXETYP=RUN MAXIT=200 SCFTYP=ROHF 
ICHARG=0 RUNTYP=ENERGY $END