 $DATA
 Should be setted!
 C1
 N     7.00    -1.578718    -0.046611     0.000000
 H     1.00    -2.158621     0.136396    -0.809565
 H     1.00    -2.158621     0.136396     0.809565
 H     1.00    -0.849471     0.658193     0.000000
 $END
 $SYSTEM MWORDS=8 $END
 $DFT NLEB=110 NRAD=24 DDSC=.t. $END
 $BASIS NGAUSS=6 GBASIS=N31 $END
 $SCF DIRSCF=.t. $END
 $CONTRL MULT=1 DFTTYP=wB97X EXETYP=RUN MAXIT=200 SCFTYP=ROHF 
ICHARG=0 RUNTYP=ENERGY $END