 $DFT NRAD=24 NLEB=110 DDSC=.t. $END
 $BASIS GBASIS=N31 NGAUSS=6 $END
 $CONTRL MAXIT=200 RUNTYP=ENERGY EXETYP=RUN SCFTYP=ROHF DFTTYP=wB97X 
ICHARG=0 MULT=1 $END
 $SCF DIRSCF=.t. $END
 $SYSTEM MWORDS=8 $END
 $DATA
 Should be setted!
 C1
 O     8.00    -1.551007    -0.114520     0.000000
 H     1.00    -1.934259     0.762503     0.000000
 H     1.00    -0.599677     0.040712     0.000000
 $END