 $DFT NRAD=24 NLEB=110 DDSC=.t. $END
 $BASIS GBASIS=N31 NGAUSS=6 $END
 $CONTRL MAXIT=200 RUNTYP=ENERGY EXETYP=RUN SCFTYP=ROHF DFTTYP=wB97X 
ICHARG=0 MULT=1 $END
 $SCF DIRSCF=.t. $END
 $SYSTEM MWORDS=8 $END
 $DATA
 Should be setted!
 C1
 N     7.00    -1.578718    -0.046611     0.000000
 H     1.00    -2.158621     0.136396    -0.809565
 H     1.00    -2.158621     0.136396     0.809565
 H     1.00    -0.849471     0.658193     0.000000
 N     7.00     1.578718     0.046611     0.000000
 H     1.00     2.158621    -0.136396    -0.809565
 H     1.00     0.849471    -0.658193     0.000000
 H     1.00     2.158621    -0.136396     0.809565
 $END